
Gurobi 6.5.2 (linux64) logging started Tue Sep  6 10:06:24 2016

Optimize a model with 101 rows, 663 columns and 1381 nonzeros
Coefficient statistics:
  Matrix range    [1e+00, 2e+00]
  Objective range [1e+00, 1e+02]
  Bounds range    [1e+00, 1e+00]
  RHS range       [1e+00, 1e+00]
Presolve removed 32 rows and 14 columns
Presolve time: 0.00s
Presolved: 69 rows, 649 columns, 1314 nonzeros
Variable types: 0 continuous, 649 integer (649 binary)
Found heuristic solution: objective 2486.0000000

Root relaxation: objective 6.182500e+02, 69 iterations, 0.00 seconds

    Nodes    |    Current Node    |     Objective Bounds      |     Work
 Expl Unexpl |  Obj  Depth IntInf | Incumbent    BestBd   Gap | It/Node Time

     0     0  618.25000    0   20 2486.00000  618.25000  75.1%     -    0s
     0     0  648.50000    0    4 2486.00000  648.50000  73.9%     -    0s
     0     0  653.50000    0   25 2486.00000  653.50000  73.7%     -    0s
     0     0  655.37500    0   28 2486.00000  655.37500  73.6%     -    0s
     0     0  658.04167    0   15 2486.00000  658.04167  73.5%     -    0s
     0     0  658.08824    0   39 2486.00000  658.08824  73.5%     -    0s
     0     0  658.08824    0   39 2486.00000  658.08824  73.5%     -    0s
     0     2  658.08824    0   39 2486.00000  658.08824  73.5%     -    0s
*  451   340              61     830.0000000  661.00000  20.4%   4.6    0s
*  886   408              19     716.0000000  662.66667  7.45%   4.7    0s
* 1048   324              17     697.0000000  662.66667  4.93%   4.6    0s
* 1065   293              14     694.0000000  662.66667  4.51%   4.6    0s
H 1107   250                     692.0000000  669.56000  3.24%   4.5    0s
H 1120   246                     690.0000000  676.15895  2.01%   4.7    0s
H 1122   235                     682.0000000  676.43734  0.82%   4.7    0s

Cutting planes:
  Gomory: 15
  Cover: 21
  Clique: 1
  Flow cover: 1
  Zero half: 12
  Lazy constraints: 10

Explored 1233 nodes (6330 simplex iterations) in 0.73 seconds
Thread count was 8 (of 8 available processors)

Optimal solution found (tolerance 1.00e-04)
Best objective 6.820000000000e+02, best bound 6.820000000000e+02, gap 0.0%
